NAME : traveling-santa-2018-prime-paths.30346.tour
COMMENT : Length = 30346
COMMENT : Found by LKH [Keld Helsgaun] Sun Jun 12 20:00:35 2022
TYPE : TOUR
DIMENSION : 100
TOUR_SECTION
1
44
85
24
89
73
87
82
77
52
40
28
92
12
22
50
79
80
11
45
65
38
74
47
42
7
58
62
56
71
61
35
19
75
23
5
51
88
27
49
33
59
30
2
43
26
99
54
93
60
81
72
10
90
34
16
41
14
6
57
83
91
48
70
86
96
20
68
98
39
17
18
32
95
66
69
94
25
76
4
3
64
15
37
21
100
46
13
31
67
84
53
97
36
63
8
9
29
55
78
-1
EOF
